proyfinal/src/viki/013/andrea/andrea-localstore/experimentInOfficeAgust.take6/worker_2/ce4e169a-2780-4f41-87eb-5cdf8bf9f38b.als.cnf.out
Reading from standard input... Use '--help' for help.
============================[ Problem Statistics ]=============================
|                                                                             |
|  Number of variables:         87638                                         |
|  Number of clauses:          161767                                         |
|  Parse time:                   0.04 s                                       |
|                                                                             |
============================[ Search Statistics ]==============================
| Conflicts |          ORIGINAL         |          LEARNT          | Progress |
|           |    Vars  Clauses Literals |    Limit  Clauses Lit/Cl |          |
===============================================================================
|       100 |   63841   110396   275966 |    40478      100     12 | 27.154 % |
|       250 |   63841   110396   275966 |    44526      250     24 | 27.154 % |
|       475 |   63841   110396   275966 |    48979      475     39 | 27.154 % |
|       812 |   63841   110396   275966 |    53876      812     45 | 27.154 % |
|      1318 |   52177    76888   193528 |    59264     1238     68 | 40.463 % |
|      2077 |   52026    76341   192246 |    65191     1972     64 | 40.635 % |
|      3216 |   51897    75833   191047 |    71710     3022     79 | 40.783 % |
|      4924 |   51866    75439   190133 |    78881     4717     78 | 40.818 % |
|      7486 |   51165    73038   184116 |    86769     6537     73 | 41.618 % |
|     11330 |   50916    72154   181908 |    95446    10361     73 | 41.902 % |
|     17096 |   50687    71154   179533 |   104990    15768     75 | 42.163 % |
===============================================================================
restarts              : 74
conflicts             : 20884          (6974 /sec)
decisions             : 65596          (0.00 % random) (21907 /sec)
propagations          : 29580061       (9878595 /sec)
conflict literals     : 1432638        (50.76 % deleted)
Memory used           : 37.95 MB
CPU time              : 2.99436 s

UNSATISFIABLE
